n_machines = 3;
n_resources = 6;
n_jobs = 74;
horizon = 3581;
LB = 1193;
n_jobs_per_resource = [14, 12, 6, 12, 12, 18];
duration = [23, 37, 26, 74, 60, 9, 23, 56, 43, 82, 45, 49, 71, 61, 28, 4, 20, 34, 47, 23, 27, 54, 89, 53, 36, 41, 34, 86, 38, 45, 92, 94, 59, 15, 31, 55, 99, 67, 32, 83, 21, 86, 69, 42, 75, 35, 24, 44, 79, 68, 31, 19, 79, 32, 53, 35, 25, 59, 56, 87, 34, 78, 27, 56, 41, 30, 66, 26, 79, 28, 96, 15, 36, 5]